[[8, 35, 54, 19, 14, 59, 53, 11, 66, 65, 38, 10, 58, 72, 39, 9], [31, 25, 55, 18, 50, 32, 44, 3, 40, 12, 17, 26, 67, 76], [4, 75, 68, 6, 51, 33, 63, 16, 49, 24, 23, 56, 43, 41], [42, 64, 22, 73, 62, 61, 28, 74, 2, 30, 48, 21, 47, 36, 69], [71, 60, 70, 20, 37, 5, 15, 57, 29, 45, 27, 13, 52, 34, 46, 7]]